GLPSOL: GLPK LP/MIP Solver, v4.57
Parameter(s) specified in the command line:
 -m shortest_paths_with_parity.mod -d data/data_100_90_44.dat -o outputsN/output_100_90_44.txt
Reading model section from shortest_paths_with_parity.mod...
41 lines were read
Reading data section from data/data_100_90_44.dat...
data/data_100_90_44.dat:3762: warning: final NL missing before end of file
3762 lines were read
Generating obj...
Generating cons1O1...
Generating cons1O2...
Generating cons1NotOD...
Generating cons1D1...
Generating cons1D2...
Generating cons2O1...
Generating cons2O2...
Generating cons2NotOD...
Generating cons2D1...
Generating cons2D2...
Generating umradio...
Generating paridade...
Model has been successfully generated
GLPK Integer Optimizer, v4.57
284 rows, 7510 columns, 37446 non-zeros
7510 integer variables, all of which are binary
Preprocessing...
278 rows, 7306 columns, 29120 non-zeros
7306 integer variables, all of which are binary
Scaling...
 A: min|aij| =  1.000e+00  max|aij| =  1.000e+00  ratio =  1.000e+00
Problem data seem to be well scaled
Constructing initial basis...
Size of triangular part is 276
Solving LP relaxation...
GLPK Simplex Optimizer, v4.57
278 rows, 7306 columns, 29120 non-zeros
      0: obj =   2.012900000e+04 inf =   2.000e+00 (2)
     19: obj =   2.019600000e+04 inf =   0.000e+00 (0)
*   491: obj =   9.900000000e+01 inf =   0.000e+00 (0) 2
OPTIMAL LP SOLUTION FOUND
Integer optimization begins...
+   491: mip =     not found yet >=              -inf        (1; 0)
+   491: >>>>>   9.900000000e+01 >=   9.900000000e+01   0.0% (1; 0)
+   491: mip =   9.900000000e+01 >=     tree is empty   0.0% (0; 1)
INTEGER OPTIMAL SOLUTION FOUND
Time used:   0.0 secs
Memory used: 16.4 Mb (17239419 bytes)
Writing MIP solution to 'outputsN/output_100_90_44.txt'...
